experiments/eusolverstring/7/TrainGenes/101101000110010000000000010111111000111111101110110110011111111001001110000000/107_.out
1 {f:func13(Param0,3,1)}
0.0002440000
0.0000000000
0.8847690000
